60
1 0 40
2 0 47
2 1 19
3 0 53
3 1 63
3 2 47
4 0 29
4 1 78
4 2 15
4 3 29
5 0 75
5 1 44
5 2 49
5 3 31
5 4 10
6 0 9
6 1 40
6 2 13
6 3 77
6 4 72
6 5 54
7 0 62
7 1 74
7 2 46
7 3 73
7 4 19
7 5 80
7 6 63
8 0 66
8 1 48
8 2 64
8 3 76
8 4 4
8 5 21
8 6 68
8 7 26
9 0 58
9 1 54
9 2 36
9 3 14
9 4 4
9 5 36
9 6 42
9 7 56
9 8 13
10 0 54
10 1 25
10 2 12
10 3 53
10 4 61
10 5 75
10 6 78
10 7 48
10 8 27
10 9 19
11 0 25
11 1 53
11 2 61
11 3 22
11 4 79
11 5 3
11 6 42
11 7 32
11 8 54
11 9 77
11 10 37
12 0 73
12 1 11
12 2 5
12 3 45
12 4 56
12 5 56
12 6 5
12 7 68
12 8 12
12 9 13
12 10 24
12 11 40
13 0 41
13 1 70
13 2 19
13 3 33
13 4 30
13 5 67
13 6 74
13 7 47
13 8 72
13 9 76
13 10 1
13 11 23
13 12 7
14 0 55
14 1 61
14 2 55
14 3 6
14 4 72
14 5 29
14 6 41
14 7 30
14 8 46
14 9 19
14 10 77
14 11 37
14 12 52
14 13 20
15 0 62
15 1 16
15 2 27
15 3 4
15 4 31
15 5 74
15 6 30
15 7 71
15 8 28
15 9 15
15 10 23
15 11 56
15 12 52
15 13 49
15 14 53
16 0 20
16 1 42
16 2 15
16 3 63
16 4 50
16 5 67
16 6 80
16 7 22
16 8 34
16 9 17
16 10 27
16 11 49
16 12 28
16 13 37
16 14 42
16 15 53
17 0 13
17 1 2
17 2 78
17 3 39
17 4 9
17 5 26
17 6 30
17 7 13
17 8 21
17 9 40
17 10 73
17 11 28
17 12 43
17 13 56
17 14 76
17 15 74
17 16 11
18 0 75
18 1 53
18 2 62
18 3 67
18 4 29
18 5 35
18 6 43
18 7 21
18 8 18
18 9 3
18 10 14
18 11 4
18 12 78
18 13 1
18 14 30
18 15 61
18 16 27
18 17 50
19 0 14
19 1 55
19 2 19
19 3 25
19 4 45
19 5 75
19 6 69
19 7 55
19 8 53
19 9 47
19 10 34
19 11 26
19 12 69
19 13 67
19 14 12
19 15 74
19 16 8
19 17 9
19 18 61
20 0 53
20 1 77
20 2 68
20 3 37
20 4 56
20 5 39
20 6 36
20 7 5
20 8 25
20 9 61
20 10 29
20 11 67
20 12 1
20 13 49
20 14 37
20 15 24
20 16 48
20 17 12
20 18 21
20 19 73
21 0 6
21 1 73
21 2 36
21 3 33
21 4 65
21 5 55
21 6 62
21 7 30
21 8 45
21 9 48
21 10 44
21 11 2
21 12 73
21 13 59
21 14 76
21 15 44
21 16 37
21 17 41
21 18 6
21 19 34
21 20 75
22 0 49
22 1 39
22 2 35
22 3 53
22 4 8
22 5 36
22 6 34
22 7 42
22 8 10
22 9 28
22 10 78
22 11 1
22 12 15
22 13 1
22 14 44
22 15 9
22 16 9
22 17 47
22 18 65
22 19 19
22 20 73
22 21 45
23 0 5
23 1 18
23 2 35
23 3 77
23 4 12
23 5 25
23 6 29
23 7 57
23 8 19
23 9 38
23 10 73
23 11 68
23 12 16
23 13 52
23 14 36
23 15 74
23 16 49
23 17 51
23 18 57
23 19 73
23 20 55
23 21 59
23 22 37
24 0 34
24 1 36
24 2 34
24 3 57
24 4 1
24 5 3
24 6 51
24 7 68
24 8 62
24 9 7
24 10 32
24 11 26
24 12 71
24 13 37
24 14 74
24 15 55
24 16 27
24 17 50
24 18 39
24 19 17
24 20 16
24 21 64
24 22 38
24 23 28
25 0 28
25 1 32
25 2 55
25 3 49
25 4 16
25 5 30
25 6 50
25 7 74
25 8 80
25 9 65
25 10 31
25 11 32
25 12 62
25 13 33
25 14 28
25 15 67
25 16 76
25 17 4
25 18 69
25 19 67
25 20 16
25 21 42
25 22 52
25 23 6
25 24 2
26 0 1
26 1 32
26 2 8
26 3 19
26 4 74
26 5 2
26 6 63
26 7 21
26 8 18
26 9 41
26 10 28
26 11 71
26 12 37
26 13 16
26 14 35
26 15 4
26 16 71
26 17 75
26 18 61
26 19 43
26 20 40
26 21 62
26 22 24
26 23 69
26 24 79
26 25 49
27 0 78
27 1 62
27 2 60
27 3 28
27 4 40
27 5 69
27 6 45
27 7 33
27 8 42
27 9 43
27 10 50
27 11 37
27 12 38
27 13 11
27 14 69
27 15 80
27 16 58
27 17 1
27 18 68
27 19 72
27 20 73
27 21 71
27 22 67
27 23 22
27 24 40
27 25 62
27 26 40
28 0 2
28 1 5
28 2 18
28 3 41
28 4 7
28 5 56
28 6 61
28 7 14
28 8 27
28 9 55
28 10 68
28 11 44
28 12 34
28 13 25
28 14 36
28 15 64
28 16 7
28 17 20
28 18 31
28 19 66
28 20 70
28 21 18
28 22 67
28 23 32
28 24 11
28 25 58
28 26 54
28 27 15
29 0 58
29 1 69
29 2 54
29 3 46
29 4 69
29 5 64
29 6 46
29 7 11
29 8 8
29 9 26
29 10 43
29 11 2
29 12 23
29 13 42
29 14 61
29 15 65
29 16 72
29 17 36
29 18 80
29 19 42
29 20 25
29 21 34
29 22 15
29 23 61
29 24 60
29 25 30
29 26 64
29 27 19
29 28 7
30 0 12
30 1 27
30 2 14
30 3 51
30 4 79
30 5 7
30 6 28
30 7 44
30 8 30
30 9 16
30 10 60
30 11 59
30 12 78
30 13 45
30 14 79
30 15 11
30 16 39
30 17 13
30 18 9
30 19 67
30 20 48
30 21 64
30 22 43
30 23 41
30 24 24
30 25 34
30 26 71
30 27 73
30 28 15
30 29 32
31 0 20
31 1 52
31 2 56
31 3 38
31 4 16
31 5 27
31 6 29
31 7 30
31 8 20
31 9 66
31 10 26
31 11 6
31 12 78
31 13 20
31 14 73
31 15 28
31 16 56
31 17 77
31 18 1
31 19 15
31 20 47
31 21 49
31 22 34
31 23 77
31 24 46
31 25 78
31 26 37
31 27 46
31 28 27
31 29 25
31 30 45
32 0 7
32 1 36
32 2 27
32 3 49
32 4 23
32 5 17
32 6 80
32 7 17
32 8 28
32 9 75
32 10 59
32 11 15
32 12 54
32 13 47
32 14 79
32 15 1
32 16 23
32 17 12
32 18 76
32 19 77
32 20 43
32 21 10
32 22 73
32 23 3
32 24 78
32 25 65
32 26 62
32 27 22
32 28 52
32 29 50
32 30 34
32 31 57
33 0 17
33 1 28
33 2 16
33 3 16
33 4 34
33 5 11
33 6 44
33 7 70
33 8 13
33 9 56
33 10 48
33 11 76
33 12 78
33 13 74
33 14 22
33 15 13
33 16 50
33 17 3
33 18 18
33 19 77
33 20 27
33 21 60
33 22 52
33 23 32
33 24 52
33 25 22
33 26 55
33 27 17
33 28 5
33 29 2
33 30 12
33 31 42
33 32 71
34 0 37
34 1 56
34 2 22
34 3 78
34 4 20
34 5 49
34 6 23
34 7 21
34 8 71
34 9 71
34 10 37
34 11 26
34 12 25
34 13 28
34 14 48
34 15 27
34 16 17
34 17 67
34 18 68
34 19 5
34 20 9
34 21 68
34 22 59
34 23 80
34 24 18
34 25 8
34 26 27
34 27 43
34 28 80
34 29 62
34 30 79
34 31 73
34 32 47
34 33 53
35 0 43
35 1 23
35 2 49
35 3 29
35 4 24
35 5 17
35 6 23
35 7 12
35 8 66
35 9 27
35 10 35
35 11 18
35 12 34
35 13 2
35 14 7
35 15 46
35 16 6
35 17 37
35 18 62
35 19 47
35 20 73
35 21 12
35 22 46
35 23 75
35 24 52
35 25 4
35 26 46
35 27 64
35 28 48
35 29 54
35 30 25
35 31 10
35 32 3
35 33 76
35 34 37
36 0 37
36 1 12
36 2 54
36 3 44
36 4 70
36 5 65
36 6 63
36 7 61
36 8 52
36 9 74
36 10 68
36 11 1
36 12 79
36 13 9
36 14 33
36 15 60
36 16 66
36 17 68
36 18 22
36 19 25
36 20 41
36 21 41
36 22 57
36 23 60
36 24 73
36 25 64
36 26 7
36 27 31
36 28 24
36 29 41
36 30 52
36 31 49
36 32 77
36 33 66
36 34 23
36 35 46
37 0 36
37 1 19
37 2 48
37 3 76
37 4 78
37 5 79
37 6 34
37 7 57
37 8 13
37 9 65
37 10 69
37 11 62
37 12 35
37 13 78
37 14 36
37 15 70
37 16 39
37 17 6
37 18 53
37 19 75
37 20 70
37 21 25
37 22 36
37 23 10
37 24 35
37 25 67
37 26 6
37 27 70
37 28 16
37 29 41
37 30 45
37 31 77
37 32 4
37 33 33
37 34 50
37 35 20
37 36 6
38 0 45
38 1 57
38 2 56
38 3 60
38 4 73
38 5 62
38 6 67
38 7 78
38 8 45
38 9 46
38 10 46
38 11 62
38 12 53
38 13 80
38 14 27
38 15 32
38 16 51
38 17 29
38 18 64
38 19 62
38 20 31
38 21 70
38 22 39
38 23 59
38 24 75
38 25 63
38 26 27
38 27 41
38 28 42
38 29 53
38 30 73
38 31 20
38 32 80
38 33 77
38 34 50
38 35 63
38 36 26
38 37 74
39 0 39
39 1 55
39 2 14
39 3 27
39 4 80
39 5 31
39 6 15
39 7 53
39 8 29
39 9 7
39 10 29
39 11 53
39 12 6
39 13 31
39 14 41
39 15 40
39 16 35
39 17 18
39 18 68
39 19 78
39 20 68
39 21 23
39 22 4
39 23 24
39 24 48
39 25 10
39 26 42
39 27 45
39 28 61
39 29 50
39 30 53
39 31 73
39 32 24
39 33 29
39 34 7
39 35 3
39 36 35
39 37 35
39 38 42
40 0 30
40 1 2
40 2 27
40 3 51
40 4 25
40 5 32
40 6 12
40 7 71
40 8 12
40 9 79
40 10 25
40 11 30
40 12 57
40 13 41
40 14 27
40 15 12
40 16 67
40 17 63
40 18 47
40 19 46
40 20 80
40 21 27
40 22 69
40 23 41
40 24 2
40 25 22
40 26 22
40 27 51
40 28 43
40 29 19
40 30 76
40 31 78
40 32 41
40 33 27
40 34 18
40 35 46
40 36 23
40 37 33
40 38 48
40 39 75
41 0 53
41 1 77
41 2 48
41 3 36
41 4 9
41 5 50
41 6 1
41 7 9
41 8 17
41 9 12
41 10 52
41 11 19
41 12 60
41 13 79
41 14 19
41 15 78
41 16 11
41 17 17
41 18 5
41 19 54
41 20 12
41 21 22
41 22 65
41 23 51
41 24 2
41 25 61
41 26 34
41 27 49
41 28 42
41 29 28
41 30 71
41 31 19
41 32 36
41 33 19
41 34 39
41 35 16
41 36 55
41 37 18
41 38 79
41 39 55
41 40 70
42 0 2
42 1 31
42 2 54
42 3 13
42 4 13
42 5 40
42 6 78
42 7 52
42 8 12
42 9 49
42 10 79
42 11 46
42 12 24
42 13 58
42 14 65
42 15 28
42 16 48
42 17 11
42 18 77
42 19 62
42 20 35
42 21 49
42 22 75
42 23 27
42 24 9
42 25 10
42 26 31
42 27 21
42 28 34
42 29 12
42 30 46
42 31 57
42 32 59
42 33 65
42 34 41
42 35 31
42 36 40
42 37 29
42 38 56
42 39 26
42 40 60
42 41 4
43 0 52
43 1 62
43 2 32
43 3 1
43 4 34
43 5 23
43 6 27
43 7 77
43 8 1
43 9 45
43 10 29
43 11 65
43 12 10
43 13 44
43 14 59
43 15 24
43 16 60
43 17 74
43 18 67
43 19 42
43 20 63
43 21 76
43 22 8
43 23 67
43 24 19
43 25 23
43 26 21
43 27 32
43 28 3
43 29 23
43 30 58
43 31 44
43 32 35
43 33 70
43 34 29
43 35 47
43 36 33
43 37 77
43 38 11
43 39 65
43 40 56
43 41 5
43 42 45
44 0 66
44 1 23
44 2 46
44 3 38
44 4 26
44 5 40
44 6 68
44 7 2
44 8 12
44 9 3
44 10 4
44 11 57
44 12 10
44 13 48
44 14 25
44 15 58
44 16 76
44 17 74
44 18 70
44 19 18
44 20 24
44 21 24
44 22 10
44 23 6
44 24 69
44 25 13
44 26 55
44 27 17
44 28 66
44 29 77
44 30 80
44 31 59
44 32 15
44 33 55
44 34 4
44 35 29
44 36 78
44 37 51
44 38 23
44 39 69
44 40 1
44 41 16
44 42 52
44 43 37
45 0 1
45 1 5
45 2 37
45 3 47
45 4 78
45 5 62
45 6 43
45 7 21
45 8 32
45 9 56
45 10 58
45 11 1
45 12 52
45 13 68
45 14 69
45 15 17
45 16 21
45 17 9
45 18 46
45 19 16
45 20 45
45 21 62
45 22 59
45 23 39
45 24 31
45 25 34
45 26 32
45 27 75
45 28 77
45 29 54
45 30 34
45 31 72
45 32 33
45 33 13
45 34 9
45 35 32
45 36 3
45 37 74
45 38 61
45 39 8
45 40 59
45 41 2
45 42 64
45 43 41
45 44 1
46 0 75
46 1 74
46 2 53
46 3 36
46 4 20
46 5 29
46 6 26
46 7 51
46 8 46
46 9 27
46 10 31
46 11 76
46 12 61
46 13 19
46 14 1
46 15 46
46 16 63
46 17 1
46 18 49
46 19 61
46 20 72
46 21 80
46 22 75
46 23 17
46 24 77
46 25 79
46 26 53
46 27 75
46 28 3
46 29 22
46 30 24
46 31 23
46 32 42
46 33 16
46 34 26
46 35 50
46 36 55
46 37 18
46 38 71
46 39 3
46 40 11
46 41 38
46 42 38
46 43 19
46 44 48
46 45 45
47 0 28
47 1 8
47 2 20
47 3 74
47 4 53
47 5 69
47 6 18
47 7 8
47 8 48
47 9 70
47 10 18
47 11 39
47 12 76
47 13 19
47 14 17
47 15 61
47 16 67
47 17 69
47 18 59
47 19 69
47 20 55
47 21 70
47 22 26
47 23 16
47 24 45
47 25 17
47 26 72
47 27 46
47 28 36
47 29 70
47 30 27
47 31 67
47 32 16
47 33 26
47 34 41
47 35 38
47 36 80
47 37 66
47 38 30
47 39 40
47 40 71
47 41 63
47 42 9
47 43 25
47 44 35
47 45 32
47 46 18
48 0 41
48 1 59
48 2 15
48 3 16
48 4 65
48 5 20
48 6 6
48 7 6
48 8 35
48 9 17
48 10 29
48 11 8
48 12 61
48 13 53
48 14 40
48 15 18
48 16 6
48 17 11
48 18 44
48 19 13
48 20 49
48 21 69
48 22 78
48 23 24
48 24 27
48 25 57
48 26 66
48 27 45
48 28 11
48 29 39
48 30 50
48 31 24
48 32 24
48 33 12
48 34 47
48 35 29
48 36 46
48 37 4
48 38 59
48 39 22
48 40 4
48 41 34
48 42 27
48 43 17
48 44 61
48 45 46
48 46 49
48 47 65
49 0 62
49 1 42
49 2 33
49 3 32
49 4 73
49 5 11
49 6 59
49 7 4
49 8 59
49 9 69
49 10 1
49 11 35
49 12 19
49 13 59
49 14 37
49 15 50
49 16 26
49 17 18
49 18 20
49 19 78
49 20 17
49 21 79
49 22 74
49 23 7
49 24 7
49 25 65
49 26 44
49 27 27
49 28 68
49 29 10
49 30 41
49 31 24
49 32 66
49 33 70
49 34 68
49 35 31
49 36 35
49 37 68
49 38 46
49 39 19
49 40 51
49 41 33
49 42 29
49 43 73
49 44 26
49 45 44
49 46 56
49 47 61
49 48 10
50 0 38
50 1 8
50 2 37
50 3 21
50 4 23
50 5 17
50 6 71
50 7 32
50 8 39
50 9 68
50 10 47
50 11 56
50 12 13
50 13 17
50 14 78
50 15 30
50 16 24
50 17 79
50 18 51
50 19 52
50 20 40
50 21 70
50 22 31
50 23 61
50 24 8
50 25 67
50 26 73
50 27 43
50 28 27
50 29 23
50 30 6
50 31 37
50 32 13
50 33 56
50 34 25
50 35 48
50 36 66
50 37 43
50 38 56
50 39 46
50 40 34
50 41 38
50 42 43
50 43 26
50 44 66
50 45 26
50 46 49
50 47 63
50 48 67
50 49 4
51 0 38
51 1 24
51 2 40
51 3 68
51 4 28
51 5 41
51 6 60
51 7 14
51 8 37
51 9 19
51 10 7
51 11 18
51 12 9
51 13 21
51 14 62
51 15 12
51 16 43
51 17 29
51 18 52
51 19 9
51 20 46
51 21 62
51 22 70
51 23 76
51 24 44
51 25 78
51 26 79
51 27 77
51 28 69
51 29 43
51 30 79
51 31 21
51 32 35
51 33 32
51 34 46
51 35 36
51 36 60
51 37 69
51 38 52
51 39 70
51 40 15
51 41 2
51 42 52
51 43 38
51 44 80
51 45 40
51 46 28
51 47 80
51 48 2
51 49 68
51 50 22
52 0 28
52 1 3
52 2 61
52 3 65
52 4 76
52 5 25
52 6 3
52 7 50
52 8 54
52 9 57
52 10 6
52 11 79
52 12 59
52 13 51
52 14 2
52 15 14
52 16 24
52 17 28
52 18 22
52 19 3
52 20 4
52 21 50
52 22 46
52 23 18
52 24 71
52 25 71
52 26 10
52 27 77
52 28 15
52 29 77
52 30 35
52 31 14
52 32 62
52 33 36
52 34 54
52 35 23
52 36 21
52 37 8
52 38 78
52 39 18
52 40 27
52 41 66
52 42 63
52 43 23
52 44 33
52 45 15
52 46 26
52 47 70
52 48 42
52 49 35
52 50 46
52 51 31
53 0 30
53 1 55
53 2 47
53 3 57
53 4 6
53 5 26
53 6 75
53 7 4
53 8 72
53 9 21
53 10 39
53 11 10
53 12 73
53 13 33
53 14 2
53 15 67
53 16 53
53 17 23
53 18 14
53 19 18
53 20 3
53 21 78
53 22 71
53 23 76
53 24 78
53 25 50
53 26 28
53 27 61
53 28 60
53 29 26
53 30 73
53 31 74
53 32 75
53 33 3
53 34 51
53 35 14
53 36 29
53 37 54
53 38 40
53 39 72
53 40 39
53 41 75
53 42 20
53 43 51
53 44 15
53 45 19
53 46 45
53 47 77
53 48 65
53 49 57
53 50 72
53 51 32
53 52 2
54 0 37
54 1 24
54 2 5
54 3 55
54 4 24
54 5 1
54 6 71
54 7 76
54 8 52
54 9 51
54 10 78
54 11 17
54 12 41
54 13 11
54 14 15
54 15 51
54 16 42
54 17 6
54 18 78
54 19 32
54 20 42
54 21 61
54 22 32
54 23 67
54 24 21
54 25 17
54 26 35
54 27 16
54 28 5
54 29 15
54 30 21
54 31 45
54 32 42
54 33 45
54 34 7
54 35 31
54 36 64
54 37 77
54 38 51
54 39 30
54 40 67
54 41 15
54 42 31
54 43 74
54 44 44
54 45 19
54 46 23
54 47 23
54 48 8
54 49 40
54 50 31
54 51 5
54 52 40
54 53 60
55 0 48
55 1 68
55 2 29
55 3 74
55 4 61
55 5 80
55 6 26
55 7 60
55 8 37
55 9 73
55 10 56
55 11 64
55 12 30
55 13 26
55 14 27
55 15 39
55 16 11
55 17 36
55 18 39
55 19 5
55 20 75
55 21 76
55 22 43
55 23 54
55 24 30
55 25 9
55 26 50
55 27 10
55 28 21
55 29 63
55 30 54
55 31 44
55 32 32
55 33 66
55 34 18
55 35 53
55 36 46
55 37 2
55 38 13
55 39 69
55 40 16
55 41 11
55 42 23
55 43 44
55 44 35
55 45 9
55 46 12
55 47 35
55 48 54
55 49 55
55 50 64
55 51 49
55 52 57
55 53 20
55 54 20
56 0 61
56 1 6
56 2 18
56 3 64
56 4 52
56 5 13
56 6 56
56 7 46
56 8 2
56 9 27
56 10 72
56 11 71
56 12 18
56 13 5
56 14 50
56 15 29
56 16 25
56 17 54
56 18 9
56 19 58
56 20 56
56 21 39
56 22 48
56 23 75
56 24 13
56 25 10
56 26 46
56 27 78
56 28 7
56 29 46
56 30 60
56 31 24
56 32 17
56 33 16
56 34 76
56 35 13
56 36 11
56 37 39
56 38 50
56 39 71
56 40 36
56 41 54
56 42 52
56 43 5
56 44 17
56 45 26
56 46 44
56 47 12
56 48 22
56 49 34
56 50 28
56 51 80
56 52 31
56 53 58
56 54 64
56 55 20
57 0 26
57 1 23
57 2 41
57 3 47
57 4 33
57 5 41
57 6 23
57 7 37
57 8 11
57 9 11
57 10 59
57 11 39
57 12 65
57 13 72
57 14 79
57 15 71
57 16 31
57 17 71
57 18 2
57 19 45
57 20 72
57 21 67
57 22 71
57 23 58
57 24 17
57 25 61
57 26 75
57 27 2
57 28 76
57 29 67
57 30 63
57 31 69
57 32 73
57 33 29
57 34 56
57 35 3
57 36 15
57 37 4
57 38 36
57 39 10
57 40 68
57 41 19
57 42 4
57 43 18
57 44 3
57 45 56
57 46 58
57 47 59
57 48 55
57 49 1
57 50 16
57 51 58
57 52 14
57 53 64
57 54 1
57 55 42
57 56 64
58 0 14
58 1 38
58 2 11
58 3 61
58 4 29
58 5 49
58 6 19
58 7 6
58 8 28
58 9 2
58 10 75
58 11 44
58 12 55
58 13 45
58 14 56
58 15 68
58 16 18
58 17 24
58 18 70
58 19 17
58 20 19
58 21 18
58 22 3
58 23 24
58 24 6
58 25 42
58 26 62
58 27 32
58 28 48
58 29 31
58 30 62
58 31 66
58 32 60
58 33 73
58 34 30
58 35 14
58 36 7
58 37 16
58 38 74
58 39 3
58 40 32
58 41 2
58 42 41
58 43 8
58 44 24
58 45 43
58 46 1
58 47 56
58 48 52
58 49 60
58 50 34
58 51 50
58 52 28
58 53 15
58 54 9
58 55 17
58 56 39
58 57 32
59 0 24
59 1 30
59 2 15
59 3 47
59 4 61
59 5 8
59 6 45
59 7 41
59 8 79
59 9 36
59 10 38
59 11 21
59 12 73
59 13 4
59 14 22
59 15 58
59 16 3
59 17 61
59 18 40
59 19 62
59 20 57
59 21 75
59 22 18
59 23 32
59 24 58
59 25 36
59 26 58
59 27 44
59 28 39
59 29 31
59 30 36
59 31 20
59 32 47
59 33 13
59 34 38
59 35 10
59 36 28
59 37 29
59 38 7
59 39 60
59 40 64
59 41 48
59 42 5
59 43 14
59 44 6
59 45 20
59 46 59
59 47 48
59 48 14
59 49 61
59 50 7
59 51 9
59 52 56
59 53 78
59 54 21
59 55 71
59 56 74
59 57 44
59 58 29
